NAME: instance_1790
TYPE: TSP
DIMENSION: 20
EDGE_WEIGHT_TYPE: EUC_2D
NODE_COORD_SECTION
0 28.27 21.41
1 75.41 1.98
2 89.36 66.19
3 23.42 24.52
4 92.83 13.85
5 48.27 6.40
6 5.12 87.71
7 59.88 30.85
8 26.17 93.42
9 94.01 56.28
10 83.17 73.94
11 43.66 92.65
12 99.59 97.66
13 33.62 43.22
14 83.89 72.92
15 91.83 79.01
16 32.88 20.76
17 57.52 6.05
18 70.85 36.56
19 11.78 53.47
EOF
